(set-logic QF_SLIA)
(declare-fun var0 () String)
(assert (str.in_re var0 (re.++ ((_ re.loop 7 240) (re.++ (re.union (str.to_re "O") (re.union (str.to_re "s") (re.union (str.to_re "-9.") (str.to_re "z")))) (re.++ (re.union (str.to_re "x:") (re.union (str.to_re "8w") (re.union (str.to_re "u,l") (str.to_re "e[")))) (re.++ (re.union (str.to_re "Z") (re.union (str.to_re "F") (re.union (str.to_re "2q") (str.to_re "1")))) (re.union (str.to_re "Wx") (re.union (str.to_re "J") (re.union (str.to_re "v") (str.to_re "_R")))))))) (re.++ ((_ re.loop 18 502) (re.++ (re.union (str.to_re "O") (re.union (str.to_re "u0\\") (re.union (str.to_re "R(<") (str.to_re "od")))) (re.++ (re.union (str.to_re "65f") (re.union (str.to_re "<+") (re.union (str.to_re "D]") (str.to_re "S_")))) (re.++ (re.union (str.to_re "1") (re.union (str.to_re ".b") (re.union (str.to_re "N") (str.to_re "f$u")))) (re.union (str.to_re "+O") (re.union (str.to_re "Lx") (re.union (str.to_re ">") (str.to_re "}Ia")))))))) (re.++ ((_ re.loop 9 261) (re.++ (re.union (str.to_re "e=") (re.union (str.to_re "X\\A") (re.union (str.to_re "WC3") (str.to_re "!I")))) (re.++ (re.union (str.to_re "X") (re.union (str.to_re ":") (re.union (str.to_re "ale") (str.to_re "EO")))) (re.++ (re.union (str.to_re "h") (re.union (str.to_re "(.") (re.union (str.to_re "rx") (str.to_re "N")))) (re.union (str.to_re "K!\\") (re.union (str.to_re "{~") (re.union (str.to_re ")]") (str.to_re "=e")))))))) ((_ re.loop 8 763) (re.++ (re.union (str.to_re "jHs") (re.union (str.to_re "A`Z") (re.union (str.to_re "Ti") (str.to_re "+%S")))) (re.++ (re.union (str.to_re "5") (re.union (str.to_re "_") (re.union (str.to_re "WS") (str.to_re "uu")))) (re.++ (re.union (str.to_re "yX") (re.union (str.to_re "}h") (re.union (str.to_re "||O") (str.to_re "0")))) (re.union (str.to_re "<#w") (re.union (str.to_re "~d") (re.union (str.to_re "R0%") (str.to_re "a_")))))))))))))
(assert (not (str.in_re var0 (re.++ ((_ re.loop 3 838) (re.++ (re.union (str.to_re "J7|") (re.union (str.to_re "|y@") (re.union (str.to_re "|") (str.to_re "xv")))) (re.++ (re.union (str.to_re "AvD") (re.union (str.to_re "b4") (re.union (str.to_re "K{") (str.to_re "\u0022")))) (re.++ (re.union (str.to_re "/-") (re.union (str.to_re "D}") (re.union (str.to_re ".5") (str.to_re "DA%")))) (re.union (str.to_re "XvB") (re.union (str.to_re "Ow]") (re.union (str.to_re "U%^") (str.to_re "1co")))))))) (re.++ ((_ re.loop 12 352) (re.++ (re.union (str.to_re "i") (re.union (str.to_re "vW?") (re.union (str.to_re "F") (str.to_re "<")))) (re.++ (re.union (str.to_re "2\\2") (re.union (str.to_re "@:M") (re.union (str.to_re "s") (str.to_re "I")))) (re.++ (re.union (str.to_re "=^E") (re.union (str.to_re "k!f") (re.union (str.to_re "p;H") (str.to_re "(A")))) (re.union (str.to_re "NT") (re.union (str.to_re "5") (re.union (str.to_re "0Q3") (str.to_re "nP")))))))) (re.++ ((_ re.loop 13 994) (re.++ (re.union (str.to_re "/") (re.union (str.to_re "C") (re.union (str.to_re "mW") (str.to_re "0")))) (re.++ (re.union (str.to_re "Q9") (re.union (str.to_re "\\8D") (re.union (str.to_re "6Es") (str.to_re "*Qa")))) (re.++ (re.union (str.to_re "JC9") (re.union (str.to_re "s|(") (re.union (str.to_re "k") (str.to_re "75")))) (re.union (str.to_re "W:") (re.union (str.to_re "j5t") (re.union (str.to_re "B") (str.to_re "C")))))))) ((_ re.loop 6 508) (re.++ (re.union (str.to_re "i2") (re.union (str.to_re "YyY") (re.union (str.to_re "?") (str.to_re "V@")))) (re.++ (re.union (str.to_re "*?") (re.union (str.to_re "}lU") (re.union (str.to_re "zbP") (str.to_re "gl")))) (re.++ (re.union (str.to_re ">G!") (re.union (str.to_re "!B") (re.union (str.to_re "S") (str.to_re "&'D")))) (re.union (str.to_re "_m@") (re.union (str.to_re "9ag") (re.union (str.to_re "g") (str.to_re ","))))))))))))))
(assert (not (str.in_re var0 (re.++ (re.* re.allchar) (re.++ (re.union (str.to_re "<") (re.union (str.to_re ">") (re.union (str.to_re "'") (re.union (str.to_re "\u0022") (str.to_re "&"))))) (re.* re.allchar))))))
(assert (<= 50 (str.len var0)))
(check-sat)
(get-model)
